11000010100110000101010101001000011000001100011000010101010001100001110000100100000000000000000100111100110000100110000001011100110000000010000010110000100010000100101000001000100010100100100000111100101100101000101100100110100010001100100100110101011110000001101001010000011000001001001010111010010101001100100000110100110100011100000000001011101011000110000110000000100110000100001011000101001110011011000000000100110001111011001010001001000010000000000000011000000011010100100010110001000110010011